p cnf 12 50 
-6 9 2 0
-5 -2 4 0
-9 -8 5 0
-5 6 9 0
4 2 -10 0
8 5 11 0
1 -9 -11 0
-8 -11 -6 0
-4 10 1 0
-9 -4 -5 0
-7 -8 -1 0
-9 -12 -1 0
-5 4 -8 0
-4 8 6 0
-3 -8 4 0
5 -10 6 0
9 -6 -3 0
5 8 -3 0
6 11 -8 0
8 2 5 0
11 -4 -1 0
-8 -12 2 0
-10 -5 -8 0
-7 1 -10 0
-10 8 -2 0
4 11 6 0
-1 11 12 0
-2 -5 -12 0
8 -6 11 0
11 -12 4 0
-8 11 -6 0
-1 -12 5 0
-11 -8 4 0
11 4 1 0
-3 11 -10 0
4 10 6 0
12 6 -8 0
8 12 11 0
8 2 -3 0
8 -5 -7 0
-1 6 10 0
-6 -1 9 0
9 1 5 0
-4 -5 6 0
12 7 5 0
1 -9 -2 0
-11 -3 -1 0
-10 8 3 0
6 -1 -7 0
4 -3 6 0
